36
99
94
88
16
22
70
66
26
65
4
97
8
92
1
67
58
61
73
50
44
64
40
54
89
42
31
80
56
75
19
53
79
18
24
38
84
32
45
91
98
23
51
68
85
39
30
96
78
52
5
37
33
76
13
95
82
2
69
81
25
87
57
9
7
34
46
43
3
41
71
100
48
14
29
83
55
12
20
27
86
35
62
60
77
28
93
47
63
6
49
90
10
72
21
74
11
15
17
59
36
